data/CVRPLIB/Vrp-Set-XML100/instances/XML100_3114_18.vrp
NAME : XML100_3114_18
COMMENT : Generated by Queiroga, Sadykov, Uchoa, and Vidal (2021)
TYPE : CVRP
DIMENSION : 101
EDGE_WEIGHT_TYPE : EUC_2D
CAPACITY : 13
NODE_COORD_SECTION
1    0    0   
2    1000 555 
3    140  760 
4    727  53  
5    284  140 
6    251  425 
7    414  463 
8    244  394 
9    806  377 
10   834  760 
11   355  138 
12   725  536 
13   324  714 
14   28   894 
15   679  346 
16   379  885 
17   223  452 
18   506  288 
19   737  753 
20   109  976 
21   962  323 
22   447  231 
23   673  407 
24   511  236 
25   385  422 
26   45   893 
27   200  188 
28   868  380 
29   168  226 
30   944  579 
31   262  109 
32   354  719 
33   268  649 
34   952  339 
35   197  215 
36   133  49  
37   448  938 
38   471  762 
39   437  615 
40   381  607 
41   645  911 
42   996  127 
43   928  834 
44   9    492 
45   535  360 
46   418  20  
47   586  504 
48   340  220 
49   689  122 
50   365  564 
51   899  177 
52   337  19  
53   317  594 
54   823  279 
55   712  312 
56   56   215 
57   590  119 
58   100  637 
59   934  971 
60   965  139 
61   126  567 
62   175  330 
63   281  425 
64   712  574 
65   974  416 
66   521  434 
67   658  865 
68   573  781 
69   525  664 
70   442  342 
71   469  997 
72   631  812 
73   898  910 
74   401  216 
75   490  666 
76   726  747 
77   797  633 
78   689  80  
79   682  522 
80   587  220 
81   591  285 
82   217  193 
83   532  868 
84   781  140 
85   604  240 
86   657  138 
87   911  551 
88   418  825 
89   43   121 
90   100  572 
91   847  994 
92   53   873 
93   988  835 
94   179  235 
95   531  309 
96   15   867 
97   130  855 
98   229  26  
99   513  988 
100  341  849 
101  45   413 
DEMAND_SECTION
1    0   
2    1   
3    1   
4    1   
5    1   
6    1   
7    1   
8    1   
9    1   
10   1   
11   1   
12   1   
13   1   
14   1   
15   1   
16   1   
17   1   
18   1   
19   1   
20   1   
21   1   
22   1   
23   1   
24   1   
25   1   
26   1   
27   1   
28   1   
29   1   
30   1   
31   1   
32   1   
33   1   
34   1   
35   1   
36   1   
37   1   
38   1   
39   1   
40   1   
41   1   
42   1   
43   1   
44   1   
45   1   
46   1   
47   1   
48   1   
49   1   
50   1   
51   1   
52   1   
53   1   
54   1   
55   1   
56   1   
57   1   
58   1   
59   1   
60   1   
61   1   
62   1   
63   1   
64   1   
65   1   
66   1   
67   1   
68   1   
69   1   
70   1   
71   1   
72   1   
73   1   
74   1   
75   1   
76   1   
77   1   
78   1   
79   1   
80   1   
81   1   
82   1   
83   1   
84   1   
85   1   
86   1   
87   1   
88   1   
89   1   
90   1   
91   1   
92   1   
93   1   
94   1   
95   1   
96   1   
97   1   
98   1   
99   1   
100  1   
101  1   
DEPOT_SECTION
1
-1
EOF
