data/CVRPLIB/Vrp-Set-XML100/solutions/XML100_3114_18.sol
Route #1: 75 18 9 42 92 72 58 90 40 66 71 67 68
Route #2: 55 60 89 57 2 96 19 91 25 13 95 43 100
Route #3: 97 51 45 56 79 84 80 44 94 17 23 21 10
Route #4: 35 30 4 81 26 34 93 28 88
Route #5: 38 74 37 82 98 70 36 15 99 87 31 12 32
Route #6: 85 48 77 3 83 50 59 41 20 33 53 54 14
Route #7: 47 73 69 24 6 49 39 52 16 5 62 7 61
Route #8: 22 8 27 64 1 29 86 76 63 11 78 46 65
Cost 16558
